(set-logic HORN)
(set-info :source |
  Benchmark: ../golem/build/RealCodeNested/originalcodeFlattenSeaHornsceleton2.c
  Generated by Korn 0.4 https://github.com/gernst/korn
|)


(declare-fun $main_sum4 (Int Int Int Int Int Int Int Int) Bool)
(declare-fun __assert_fail (Int Int Int Int) Bool)
(declare-fun $main_sum2 (Int Int Int Int Int Int Int Int) Bool)
(declare-fun $main_inv4 (Int Int Int Int Int Int Int Int) Bool)
(declare-fun $main_if5 (Int Int Int Int Int Int Int Int Int Int Int Int Int Int Int Int) Bool)
(declare-fun $main_loop (Int Int Int Int Int Int Int Int Int Int Int Int Int Int Int Int) Bool)
(declare-fun $main_if3 (Int Int Int Int Int Int Int Int Int Int Int Int Int Int Int Int) Bool)
(declare-fun __VERIFIER_assert (Int) Bool)
(declare-fun $main_sum3 (Int Int Int Int Int Int Int Int) Bool)
(declare-fun $main_inv2 (Int Int Int Int Int Int Int Int) Bool)
(declare-fun $main_sum1 (Int Int Int Int Int Int Int Int) Bool)
(declare-fun $main_if4 (Int Int Int Int Int Int Int Int Int Int Int Int Int Int Int Int) Bool)
(declare-fun $main_inv1 (Int Int Int Int Int Int Int Int) Bool)
(declare-fun $__VERIFIER_assert_pre (Int) Bool)
(declare-fun $__VERIFIER_assert_if1 (Int Int) Bool)
(declare-fun $n_pre () Bool)
(declare-fun $main_if8 (Int Int Int Int Int Int Int Int Int Int Int Int Int Int Int Int) Bool)
(declare-fun $main_if6 (Int Int Int Int Int Int Int Int Int Int Int Int Int Int Int Int) Bool)
(declare-fun $main_if7 (Int Int Int Int Int Int Int Int Int Int Int Int Int Int Int Int) Bool)
(declare-fun $main_if2 (Int Int Int Int Int Int Int Int Int Int Int Int Int Int Int Int) Bool)
(declare-fun $__assert_fail_pre (Int Int Int Int) Bool)
(declare-fun $main_inv3 (Int Int Int Int Int Int Int Int) Bool)
(declare-fun n (Int) Bool)
(declare-fun $__VERIFIER_assert_ERROR (Int Int) Bool)

; label ERROR
(assert
  (forall ((cond!1 Int))
    (=> (and (not (not (= cond!1 0)))
             ($__VERIFIER_assert_pre cond!1))
        ($__VERIFIER_assert_ERROR cond!1 cond!1))))

; error
(assert
  (forall ((cond!1 Int) (cond!2 Int))
    (=> (and ($__VERIFIER_assert_ERROR cond!1 cond!2))
        false)))

; if else
(assert
  (forall ((cond!1 Int))
    (=> (and (not (not (not (= cond!1 0))))
             ($__VERIFIER_assert_pre cond!1))
        ($__VERIFIER_assert_if1 cond!1 cond!1))))

; post __VERIFIER_assert
(assert
  (forall ((cond!1 Int) (cond!3 Int))
    (=> (and ($__VERIFIER_assert_if1 cond!1 cond!3))
        (__VERIFIER_assert cond!1))))

; loop entry $main_inv1 (line 18)
(assert
  (forall ((j!9 Int) (e!11 Int) (i!10 Int) (Ty!6 Int) (Worklist!5 Int) (TempRes!4 Int))
    (=> (and (<= 0 Ty!6)
             (<= Ty!6 10)
             (= e!11 10)
             (= i!10 0)
             (= Worklist!5 1)
             (= TempRes!4 0))
        ($main_inv1 TempRes!4 Worklist!5 Ty!6 i!10 e!11 j!9 i!10 e!11))))

; loop term $main_sum1 (line 18)
(assert
  (forall ((i!18 Int) (Worklist!13 Int) (e!19 Int) (Ty!14 Int) (TempRes!12 Int) (j!17 Int))
    (=> (and (not (> Worklist!13 0))
             ($main_inv1 TempRes!12 Worklist!13 Ty!14 i!18 e!19 j!17 i!18 e!19))
        ($main_sum1 TempRes!12 Worklist!13 Ty!14 i!18 e!19 j!17 i!18 e!19))))

; label loop
(assert
  (forall ((i!18 Int) (Worklist!13 Int) (e!19 Int) (Ty!14 Int) (TempRes!12 Int) (j!17 Int))
    (=> (and (> Worklist!13 0)
             ($main_inv1 TempRes!12 Worklist!13 Ty!14 i!18 e!19 j!17 i!18 e!19))
        ($main_loop TempRes!12 Worklist!13 Ty!14 i!18 e!19 j!17 i!18 e!19 TempRes!12 Worklist!13 Ty!14 i!18 e!19 j!17 i!18 e!19))))

; goto loop
(assert
  (forall ((i!18 Int) (Worklist!13 Int) (Worklist!21 Int) (e!27 Int) (e!19 Int) (j!25 Int) (Ty!14 Int) (i!26 Int) (Ty!22 Int) (TempRes!20 Int) (TempRes!12 Int) (j!17 Int))
    (=> (and (= Ty!22 1)
             (<= 0 Ty!22)
             (<= Ty!22 10)
             ($main_loop TempRes!12 Worklist!13 Ty!14 i!18 e!19 j!17 i!18 e!19 TempRes!20 Worklist!21 Ty!22 i!26 e!27 j!25 i!26 e!27))
        ($main_loop TempRes!12 Worklist!13 Ty!14 i!18 e!19 j!17 i!18 e!19 (+ TempRes!20 1) (- Worklist!21 1) (mod (+ Ty!22 1) 5) i!26 e!27 j!25 i!26 e!27))))

; if else
(assert
  (forall ((i!18 Int) (Worklist!13 Int) (Worklist!21 Int) (e!27 Int) (e!19 Int) (j!25 Int) (Ty!14 Int) (i!26 Int) (Ty!22 Int) (TempRes!20 Int) (TempRes!12 Int) (j!17 Int))
    (=> (and (not (= Ty!22 1))
             (<= 0 Ty!22)
             (<= Ty!22 10)
             ($main_loop TempRes!12 Worklist!13 Ty!14 i!18 e!19 j!17 i!18 e!19 TempRes!20 Worklist!21 Ty!22 i!26 e!27 j!25 i!26 e!27))
        ($main_if2 TempRes!12 Worklist!13 Ty!14 i!18 e!19 j!17 i!18 e!19 TempRes!20 (- Worklist!21 1) Ty!22 i!26 e!27 j!25 i!26 e!27))))

; if then
(assert
  (forall ((i!18 Int) (Worklist!13 Int) (e!35 Int) (i!34 Int) (e!19 Int) (TempRes!28 Int) (j!33 Int) (Ty!30 Int) (Worklist!29 Int) (Ty!14 Int) (TempRes!12 Int) (j!17 Int))
    (=> (and (= j!33 0)
             (< Worklist!29 0)
             (not (or (or (= Ty!30 2) (= Ty!30 3)) (= Ty!30 4)))
             ($main_if2 TempRes!12 Worklist!13 Ty!14 i!18 e!19 j!17 i!18 e!19 TempRes!28 Worklist!29 Ty!30 i!34 e!35 j!33 i!34 e!35))
        ($main_if3 TempRes!12 Worklist!13 Ty!14 i!18 e!19 j!17 i!18 e!19 (+ TempRes!28 1) (+ Worklist!29 1) Ty!30 i!34 e!35 j!33 i!34 e!35))))

; if else
(assert
  (forall ((i!18 Int) (Worklist!13 Int) (e!35 Int) (i!34 Int) (e!19 Int) (TempRes!28 Int) (j!33 Int) (Ty!30 Int) (Worklist!29 Int) (Ty!14 Int) (TempRes!12 Int) (j!17 Int))
    (=> (and (not (= j!33 0))
             (< Worklist!29 0)
             (not (or (or (= Ty!30 2) (= Ty!30 3)) (= Ty!30 4)))
             ($main_if2 TempRes!12 Worklist!13 Ty!14 i!18 e!19 j!17 i!18 e!19 TempRes!28 Worklist!29 Ty!30 i!34 e!35 j!33 i!34 e!35))
        ($main_if3 TempRes!12 Worklist!13 Ty!14 i!18 e!19 j!17 i!18 e!19 (+ TempRes!28 1) Worklist!29 Ty!30 i!34 e!35 j!33 i!34 e!35))))

; goto loop
(assert
  (forall ((i!18 Int) (Worklist!13 Int) (j!41 Int) (e!19 Int) (TempRes!36 Int) (Ty!38 Int) (Worklist!37 Int) (i!42 Int) (Ty!14 Int) (e!43 Int) (TempRes!12 Int) (j!17 Int))
    (=> (and ($main_if3 TempRes!12 Worklist!13 Ty!14 i!18 e!19 j!17 i!18 e!19 TempRes!36 Worklist!37 Ty!38 i!42 e!43 j!41 i!42 e!43))
        ($main_loop TempRes!12 Worklist!13 Ty!14 i!18 e!19 j!17 i!18 e!19 TempRes!36 Worklist!37 Ty!38 i!42 e!43 j!41 i!42 e!43))))

; if else
(assert
  (forall ((i!18 Int) (Worklist!13 Int) (e!35 Int) (i!34 Int) (e!19 Int) (TempRes!28 Int) (j!33 Int) (Ty!30 Int) (Worklist!29 Int) (Ty!14 Int) (TempRes!12 Int) (j!17 Int))
    (=> (and (not (< Worklist!29 0))
             (not (or (or (= Ty!30 2) (= Ty!30 3)) (= Ty!30 4)))
             ($main_if2 TempRes!12 Worklist!13 Ty!14 i!18 e!19 j!17 i!18 e!19 TempRes!28 Worklist!29 Ty!30 i!34 e!35 j!33 i!34 e!35))
        ($main_if4 TempRes!12 Worklist!13 Ty!14 i!18 e!19 j!17 i!18 e!19 (+ TempRes!28 1) Worklist!29 Ty!30 i!34 e!35 j!33 i!34 e!35))))

; if then
(assert
  (forall ((i!18 Int) (Worklist!13 Int) (Worklist!45 Int) (e!19 Int) (e!51 Int) (TempRes!44 Int) (i!50 Int) (Ty!14 Int) (j!49 Int) (Ty!46 Int) (TempRes!12 Int) (j!17 Int))
    (=> (and ($main_if4 TempRes!12 Worklist!13 Ty!14 i!18 e!19 j!17 i!18 e!19 TempRes!44 Worklist!45 Ty!46 i!50 e!51 j!49 i!50 e!51))
        ($main_if5 TempRes!12 Worklist!13 Ty!14 i!18 e!19 j!17 i!18 e!19 TempRes!44 Worklist!45 Ty!46 i!50 e!51 j!49 i!50 e!51))))

; if else
(assert
  (forall ((i!18 Int) (Worklist!13 Int) (e!35 Int) (i!34 Int) (e!19 Int) (TempRes!28 Int) (j!33 Int) (Ty!30 Int) (Worklist!29 Int) (Ty!14 Int) (TempRes!12 Int) (j!17 Int))
    (=> (and (not (not (or (or (= Ty!30 2) (= Ty!30 3)) (= Ty!30 4))))
             ($main_if2 TempRes!12 Worklist!13 Ty!14 i!18 e!19 j!17 i!18 e!19 TempRes!28 Worklist!29 Ty!30 i!34 e!35 j!33 i!34 e!35))
        ($main_if5 TempRes!12 Worklist!13 Ty!14 i!18 e!19 j!17 i!18 e!19 TempRes!28 Worklist!29 Ty!30 i!34 e!35 j!33 i!34 e!35))))

; loop entry $main_inv2 (line 46)
(assert
  (forall ((i!18 Int) (Worklist!13 Int) (TempRes!52 Int) (e!19 Int) (e!59 Int) (Worklist!53 Int) (i!58 Int) (Ty!14 Int) (TempRes!12 Int) (j!17 Int) (j!57 Int) (Ty!54 Int))
    (=> (and (= e!59 10)
             (= i!58 0)
             (= Ty!54 2)
             ($main_if5 TempRes!12 Worklist!13 Ty!14 i!18 e!19 j!17 i!18 e!19 TempRes!52 Worklist!53 Ty!54 i!58 e!59 j!57 i!58 e!59))
        ($main_inv2 TempRes!52 Worklist!53 (mod (+ Ty!54 1) 5) i!58 e!59 j!57 i!58 e!59))))

; loop term $main_sum2 (line 46)
(assert
  (forall ((i!66 Int) (j!65 Int) (Worklist!61 Int) (TempRes!60 Int) (Ty!62 Int) (e!67 Int))
    (=> (and (not (not (= i!66 e!67)))
             ($main_inv2 TempRes!60 Worklist!61 Ty!62 i!66 e!67 j!65 i!66 e!67))
        ($main_sum2 TempRes!60 Worklist!61 Ty!62 i!66 e!67 j!65 i!66 e!67))))

; forwards $main_inv2 (line 46)
(assert
  (forall ((i!66 Int) (j!65 Int) (Worklist!61 Int) (TempRes!60 Int) (Ty!62 Int) (e!67 Int))
    (=> (and (not (= i!66 e!67))
             ($main_inv2 TempRes!60 Worklist!61 Ty!62 i!66 e!67 j!65 i!66 e!67))
        ($main_inv2 TempRes!60 (+ Worklist!61 1) Ty!62 (+ i!66 1) e!67 j!65 (+ i!66 1) e!67))))

; goto loop
(assert
  (forall ((j!73 Int) (e!75 Int) (Worklist!69 Int) (Ty!14 Int) (i!74 Int) (i!18 Int) (Ty!70 Int) (Worklist!13 Int) (e!19 Int) (TempRes!68 Int) (TempRes!12 Int) (j!17 Int))
    (=> (and ($main_sum2 TempRes!68 Worklist!69 Ty!70 i!74 e!75 j!73 i!74 e!75))
        ($main_loop TempRes!12 Worklist!13 Ty!14 i!18 e!19 j!17 i!18 e!19 TempRes!68 Worklist!69 Ty!70 i!74 e!75 j!73 i!74 e!75))))

; if else
(assert
  (forall ((i!18 Int) (Worklist!13 Int) (TempRes!52 Int) (e!19 Int) (e!59 Int) (Worklist!53 Int) (i!58 Int) (Ty!14 Int) (TempRes!12 Int) (j!17 Int) (j!57 Int) (Ty!54 Int))
    (=> (and (not (= Ty!54 2))
             ($main_if5 TempRes!12 Worklist!13 Ty!14 i!18 e!19 j!17 i!18 e!19 TempRes!52 Worklist!53 Ty!54 i!58 e!59 j!57 i!58 e!59))
        ($main_if6 TempRes!12 Worklist!13 Ty!14 i!18 e!19 j!17 i!18 e!19 TempRes!52 Worklist!53 Ty!54 i!58 e!59 j!57 i!58 e!59))))

; loop entry $main_inv3 (line 56)
(assert
  (forall ((TempRes!76 Int) (i!82 Int) (Worklist!13 Int) (e!19 Int) (Worklist!77 Int) (Ty!78 Int) (Ty!14 Int) (j!81 Int) (i!18 Int) (e!83 Int) (TempRes!12 Int) (j!17 Int))
    (=> (and (= Ty!78 3)
             ($main_if6 TempRes!12 Worklist!13 Ty!14 i!18 e!19 j!17 i!18 e!19 TempRes!76 Worklist!77 Ty!78 i!82 e!83 j!81 i!82 e!83))
        ($main_inv3 TempRes!76 Worklist!77 (mod (+ Ty!78 1) 5) i!82 e!83 j!81 i!82 e!83))))

; loop term $main_sum3 (line 56)
(assert
  (forall ((Worklist!85 Int) (j!89 Int) (TempRes!84 Int) (e!91 Int) (i!90 Int) (Ty!86 Int))
    (=> (and (not (not (= i!90 e!91)))
             ($main_inv3 TempRes!84 Worklist!85 Ty!86 i!90 e!91 j!89 i!90 e!91))
        ($main_sum3 TempRes!84 Worklist!85 Ty!86 i!90 e!91 j!89 i!90 e!91))))

; forwards $main_inv3 (line 56)
(assert
  (forall ((Worklist!85 Int) (j!89 Int) (TempRes!84 Int) (e!91 Int) (i!90 Int) (Ty!86 Int))
    (=> (and (not (= i!90 e!91))
             ($main_inv3 TempRes!84 Worklist!85 Ty!86 i!90 e!91 j!89 i!90 e!91))
        ($main_inv3 TempRes!84 (+ Worklist!85 1) Ty!86 (+ i!90 1) e!91 j!89 (+ i!90 1) e!91))))

; goto loop
(assert
  (forall ((i!18 Int) (Worklist!13 Int) (e!19 Int) (j!97 Int) (TempRes!92 Int) (Ty!14 Int) (Ty!94 Int) (Worklist!93 Int) (TempRes!12 Int) (j!17 Int) (i!98 Int) (e!99 Int))
    (=> (and ($main_sum3 TempRes!92 Worklist!93 Ty!94 i!98 e!99 j!97 i!98 e!99))
        ($main_loop TempRes!12 Worklist!13 Ty!14 i!18 e!19 j!17 i!18 e!19 TempRes!92 Worklist!93 Ty!94 i!98 e!99 j!97 i!98 e!99))))

; if else
(assert
  (forall ((TempRes!76 Int) (i!82 Int) (Worklist!13 Int) (e!19 Int) (Worklist!77 Int) (Ty!78 Int) (Ty!14 Int) (j!81 Int) (i!18 Int) (e!83 Int) (TempRes!12 Int) (j!17 Int))
    (=> (and (not (= Ty!78 3))
             ($main_if6 TempRes!12 Worklist!13 Ty!14 i!18 e!19 j!17 i!18 e!19 TempRes!76 Worklist!77 Ty!78 i!82 e!83 j!81 i!82 e!83))
        ($main_if7 TempRes!12 Worklist!13 Ty!14 i!18 e!19 j!17 i!18 e!19 TempRes!76 Worklist!77 Ty!78 i!82 e!83 j!81 i!82 e!83))))

; loop entry $main_inv4 (line 66)
(assert
  (forall ((i!106 Int) (i!18 Int) (Worklist!13 Int) (e!19 Int) (Ty!102 Int) (e!107 Int) (Worklist!101 Int) (Ty!14 Int) (j!105 Int) (TempRes!100 Int) (TempRes!12 Int) (j!17 Int))
    (=> (and (= Ty!102 4)
             ($main_if7 TempRes!12 Worklist!13 Ty!14 i!18 e!19 j!17 i!18 e!19 TempRes!100 Worklist!101 Ty!102 i!106 e!107 j!105 i!106 e!107))
        ($main_inv4 TempRes!100 Worklist!101 (mod (+ Ty!102 1) 5) i!106 e!107 j!105 i!106 e!107))))

; loop term $main_sum4 (line 66)
(assert
  (forall ((e!115 Int) (Ty!110 Int) (Worklist!109 Int) (j!113 Int) (i!114 Int) (TempRes!108 Int))
    (=> (and (not (not (= i!114 e!115)))
             ($main_inv4 TempRes!108 Worklist!109 Ty!110 i!114 e!115 j!113 i!114 e!115))
        ($main_sum4 TempRes!108 Worklist!109 Ty!110 i!114 e!115 j!113 i!114 e!115))))

; forwards $main_inv4 (line 66)
(assert
  (forall ((e!115 Int) (Ty!110 Int) (Worklist!109 Int) (j!113 Int) (i!114 Int) (TempRes!108 Int))
    (=> (and (not (= i!114 e!115))
             ($main_inv4 TempRes!108 Worklist!109 Ty!110 i!114 e!115 j!113 i!114 e!115))
        ($main_inv4 TempRes!108 (+ Worklist!109 1) Ty!110 (+ i!114 1) e!115 j!113 (+ i!114 1) e!115))))

; if then
(assert
  (forall ((i!18 Int) (j!121 Int) (Worklist!13 Int) (e!19 Int) (Ty!118 Int) (i!122 Int) (Worklist!117 Int) (e!123 Int) (Ty!14 Int) (TempRes!116 Int) (TempRes!12 Int) (j!17 Int))
    (=> (and ($main_sum4 TempRes!116 Worklist!117 Ty!118 i!122 e!123 j!121 i!122 e!123))
        ($main_if8 TempRes!12 Worklist!13 Ty!14 i!18 e!19 j!17 i!18 e!19 TempRes!116 Worklist!117 Ty!118 i!122 e!123 j!121 i!122 e!123))))

; if else
(assert
  (forall ((i!106 Int) (i!18 Int) (Worklist!13 Int) (e!19 Int) (Ty!102 Int) (e!107 Int) (Worklist!101 Int) (Ty!14 Int) (j!105 Int) (TempRes!100 Int) (TempRes!12 Int) (j!17 Int))
    (=> (and (not (= Ty!102 4))
             ($main_if7 TempRes!12 Worklist!13 Ty!14 i!18 e!19 j!17 i!18 e!19 TempRes!100 Worklist!101 Ty!102 i!106 e!107 j!105 i!106 e!107))
        ($main_if8 TempRes!12 Worklist!13 Ty!14 i!18 e!19 j!17 i!18 e!19 TempRes!100 Worklist!101 Ty!102 i!106 e!107 j!105 i!106 e!107))))

; forwards $main_inv1 (line 18)
(assert
  (forall ((i!130 Int) (Worklist!125 Int) (e!19 Int) (Ty!14 Int) (e!131 Int) (Ty!126 Int) (i!18 Int) (TempRes!124 Int) (Worklist!13 Int) (j!129 Int) (TempRes!12 Int) (j!17 Int))
    (=> (and ($main_if8 TempRes!12 Worklist!13 Ty!14 i!18 e!19 j!17 i!18 e!19 TempRes!124 Worklist!125 Ty!126 i!130 e!131 j!129 i!130 e!131))
        ($main_inv1 TempRes!124 (- Worklist!125 2) Ty!126 0 e!131 j!129 0 e!131))))

; VERIFIER_assert (< TempRes!132 Worklist!133)
(assert
  (forall ((e!139 Int) (Worklist!133 Int) (TempRes!132 Int) (Ty!134 Int) (i!138 Int) (j!137 Int))
    (=> (and (not (< TempRes!132 Worklist!133))
             ($main_sum1 TempRes!132 Worklist!133 Ty!134 i!138 e!139 j!137 i!138 e!139))
        false)))

(check-sat)
